&BANDS
outdir='./tmp'
prefix='SiC'
filband='bands_SiC'
/
