&CONTROL
 calculation = 'vc-relax',
 restart_mode='from_scratch',
 prefix = 'SiC',
 pseudo_dir = '../../Pseudo',
 outdir = './tmp',
 tprnfor = .true.,
 tstress = .true.,
 verbosity = 'high',
/
&SYSTEM
 ibrav = 2, 
 celldm(1) = 8.2354297, 
 nat=2, ntyp=2,
 ecutwfc = 40,
 ecutrho = 320,
/
&ELECTRONS
 conv_thr =   1.0d-9
/
&IONS
/
&CELL
/
ATOMIC_SPECIES
 C  12.011   C.pbe-n-rrkjus_psl.1.0.0.UPF
Si  28.090  Si.pbe-nl-rrkjus_psl.1.0.0.UPF
ATOMIC_POSITIONS crystal
 C 0.00000 0.00000 0.00000
Si 0.25000 0.25000 0.25000
K_POINTS automatic
 6 6 6 0 0 0
