&BANDS
outdir='./tmp'
prefix='hBN'
filband='bands_hBN'
/
