&CONTROL
 calculation = 'scf',
 restart_mode='from_scratch',
 prefix = 'SiC',
 pseudo_dir = './Pseudo',
 outdir = './tmp',
 tprnfor = .true.,
 tstress = .true.,
 verbosity = 'high',
/
&SYSTEM
 ibrav = 2, 
 celldm(1) = 8.2354297, 
 nat=2, ntyp=2,
 ecutwfc = ,
 ecutrho = ,
/
&ELECTRONS
 conv_thr =   1.0d-9
/
ATOMIC_SPECIES
Si  28.09  Si.pbe-nl-rrkjus_psl.1.0.0.UPF
 C  12.01  C.pbe-n-rrkjus_psl.1.0.0.UPF
ATOMIC_POSITIONS crystal
Si 0.00  0.00  0.00
C  0.25  0.25  0.25
K_POINTS automatic

