&DOS
outdir = './tmp'
prefix = 'hBN'
fildos = 'hBN_36.dos'
/
